NAME: tsp_498
COMMENT: Random TSP instance
TYPE: TSP
DIMENSION: 50
EDGE_WEIGHT_TYPE: EUC_2D
NODE_COORD_SECTION
1 14 635
2 497 655
3 165 563
4 416 555
5 915 13
6 834 816
7 472 895
8 324 605
9 668 354
10 717 455
11 937 563
12 107 130
13 121 671
14 45 181
15 589 763
16 414 924
17 292 980
18 360 7
19 471 611
20 253 578
21 720 880
22 997 659
23 741 182
24 110 924
25 814 965
26 781 906
27 17 115
28 466 411
29 533 374
30 603 735
31 888 769
32 19 42
33 559 733
34 690 170
35 420 1000
36 164 751
37 885 868
38 592 294
39 662 428
40 269 99
41 106 307
42 794 732
43 771 925
44 968 876
45 462 514
46 838 715
47 508 173
48 127 881
49 532 112
50 315 184
